% seed = 0

mint = 36;
% maxt = 151;

nActs = 62;
dur = [0,3,2,1,2,4,2,2,2,3,1,2,2,5,4,2,1,2,2,2,6,3,2,2,2,2,3,3,4,2,1,1,2,1,2,2,1,2,4,2,3,3,3,1,3,2,2,3,2,3,6,3,2,2,3,2,3,2,6,2,4,0];

nSkills = 9;
sreq = [| 0,0,0,0,0,0,0,0,0,
	| 0,0,1,2,0,0,0,1,0,
	| 0,0,1,0,1,0,0,0,0,
	| 0,0,0,0,0,1,0,0,1,
	| 0,0,1,1,0,1,1,0,0,
	| 0,0,1,1,0,1,1,0,0,
	| 0,0,0,1,1,0,0,1,0,
	| 0,0,1,0,0,1,0,2,0,
	| 0,0,1,1,0,1,0,1,0,
	| 0,0,0,0,2,0,0,0,0,
	| 0,0,0,0,0,0,1,1,0,
	| 0,0,0,0,0,1,0,0,0,
	| 0,0,1,0,1,0,0,0,0,
	| 0,0,0,0,1,1,0,1,0,
	| 0,0,1,1,0,0,1,1,0,
	| 0,0,1,0,0,0,0,0,0,
	| 0,0,0,0,0,2,0,0,0,
	| 0,0,0,0,0,1,1,2,0,
	| 0,1,0,0,1,0,0,0,0,
	| 0,0,0,0,1,0,0,2,0,
	| 0,0,0,0,0,1,1,0,0,
	| 0,0,1,0,0,1,1,1,0,
	| 0,0,1,0,1,1,1,0,0,
	| 0,0,2,0,0,1,1,0,0,
	| 0,0,1,0,0,2,0,0,0,
	| 0,0,0,0,0,2,1,0,0,
	| 0,0,1,0,0,1,0,0,0,
	| 0,0,1,0,1,0,0,0,0,
	| 0,0,0,1,0,0,0,0,0,
	| 0,0,1,0,0,1,0,1,0,
	| 0,0,0,0,0,0,1,0,0,
	| 0,0,1,0,0,1,0,0,0,
	| 0,0,0,0,0,1,1,1,0,
	| 0,0,1,0,0,0,0,0,0,
	| 0,0,0,0,1,0,0,0,0,
	| 0,0,0,0,1,0,0,1,0,
	| 0,0,1,0,0,0,0,0,0,
	| 0,0,1,0,1,0,0,1,0,
	| 1,0,0,0,1,0,0,2,0,
	| 0,0,1,0,0,0,0,2,0,
	| 0,0,1,0,1,0,0,1,0,
	| 0,0,0,0,0,1,0,0,0,
	| 0,0,0,0,0,1,0,0,0,
	| 0,0,0,0,1,0,0,0,0,
	| 0,0,1,0,0,1,0,0,0,
	| 0,0,0,0,0,1,1,0,0,
	| 0,0,0,0,2,0,0,1,0,
	| 0,0,0,0,0,1,0,0,0,
	| 0,0,1,0,0,0,0,0,0,
	| 0,0,0,0,1,1,0,1,0,
	| 0,0,0,0,0,1,0,1,0,
	| 0,0,2,0,1,1,0,0,0,
	| 0,0,2,0,0,0,2,0,0,
	| 0,0,1,0,0,0,0,0,0,
	| 0,0,0,0,0,1,2,1,0,
	| 0,0,2,1,0,0,0,1,0,
	| 0,0,0,0,1,0,0,0,0,
	| 0,0,1,0,1,0,1,1,0,
	| 0,0,0,0,0,1,0,0,0,
	| 0,0,1,0,1,1,0,0,0,
	| 0,0,0,1,0,0,0,1,0,
	| 0,0,0,0,0,0,0,0,0, |];

% SumOfsreq = 150;

nResources = 13;
mastery = [| false,false,false,false,false,true,false,false,false,
	| true,true,true,true,true,true,false,false,false,
	| false,false,false,false,false,true,true,true,true,
	| false,false,true,false,false,false,false,false,false,
	| false,false,false,false,false,false,false,true,true,
	| false,false,false,false,false,false,true,true,true,
	| false,false,false,true,true,true,false,false,false,
	| false,false,false,true,true,true,false,false,false,
	| false,false,false,false,true,true,false,false,false,
	| false,false,false,false,false,false,true,true,true,
	| false,false,true,false,false,false,false,false,false,
	| false,false,true,false,false,false,false,false,false,
	| false,false,false,false,false,false,false,true,true, |];

nPrecs = 112;
pred = [1,1,1,2,2,3,3,3,4,4,4,5,5,6,6,7,7,8,8,9,9,9,10,11,11,11,12,12,12,13,13,13,14,14,14,15,16,17,17,18,18,18,19,19,20,20,21,21,21,22,22,22,23,23,23,24,24,25,25,26,26,26,27,27,27,28,29,29,30,31,31,32,33,33,34,34,35,36,37,37,38,39,40,40,40,41,41,42,43,43,44,45,45,45,46,46,47,48,48,49,50,51,52,53,54,55,56,57,58,59,60,61];
succ = [2,3,4,18,60,10,5,45,11,6,8,7,24,12,46,20,14,9,16,18,20,13,19,17,57,28,43,45,22,49,53,24,37,21,15,27,41,18,34,58,30,39,29,23,25,47,38,47,56,49,40,32,44,46,31,26,42,36,37,41,50,29,33,35,54,48,57,30,61,33,39,51,61,48,55,39,48,46,42,52,44,43,41,44,47,59,55,50,53,54,52,58,53,54,57,59,50,49,51,52,51,55,58,56,56,60,61,60,59,62,62,62];

nUnrels = 1118;
unpred = [2,2,2,2,2,2,2,2,2,2,2,2,2,2,2,2,2,2,2,2,2,2,2,2,2,2,2,2,2,2,2,2,2,2,2,2,2,2,2,2,2,2,2,2,2,2,2,2,3,3,3,3,3,3,3,3,3,3,3,3,3,3,3,4,4,4,4,4,4,4,4,4,4,4,4,4,5,5,5,5,5,5,5,5,5,5,5,5,5,5,5,5,5,5,5,5,5,5,6,6,6,6,6,6,6,6,6,6,6,6,6,6,6,6,6,6,6,6,6,6,6,6,6,6,6,6,6,6,6,6,7,7,7,7,7,7,7,7,7,7,7,7,7,7,7,7,7,7,7,7,7,7,7,7,7,7,8,8,8,8,8,8,8,8,8,8,8,8,8,8,8,8,8,8,8,8,8,8,9,9,9,9,9,9,9,9,9,9,9,9,9,9,9,9,9,9,9,9,9,9,9,10,10,10,10,10,10,10,10,10,10,10,10,10,10,10,10,10,10,10,10,10,10,10,10,10,10,10,10,11,11,11,11,11,11,11,11,11,11,11,11,11,11,11,11,11,11,11,11,11,11,11,11,11,11,11,11,11,11,12,12,12,12,12,12,12,12,12,12,12,12,12,12,12,12,12,12,12,12,12,12,12,12,12,12,12,12,12,13,13,13,13,13,13,13,13,13,13,13,13,13,13,13,13,13,13,13,13,13,13,13,13,13,13,13,13,13,13,14,14,14,14,14,14,14,14,14,14,14,14,14,14,14,14,14,14,14,14,14,14,14,14,14,15,15,15,15,15,15,15,15,15,15,15,15,15,15,15,15,15,15,15,15,15,15,15,15,15,15,15,15,15,15,15,15,16,16,16,16,16,16,16,16,16,16,16,16,16,16,16,16,16,16,16,16,16,16,16,16,16,16,16,16,16,16,16,16,16,16,16,16,16,16,16,16,16,17,17,17,17,17,17,17,17,17,17,17,17,17,17,17,17,17,17,17,17,17,17,17,17,17,17,17,17,17,17,17,18,18,18,18,18,18,18,18,18,18,18,18,18,18,18,18,18,18,18,18,18,18,18,18,18,18,18,18,18,18,18,18,18,18,19,19,19,19,19,19,19,19,19,19,19,19,19,19,19,19,19,19,19,19,20,20,20,20,20,20,20,20,20,20,20,20,20,20,20,20,20,20,20,20,20,20,20,20,20,20,20,21,21,21,21,21,21,21,21,21,21,21,21,21,21,21,21,21,21,21,21,21,21,21,21,21,21,21,21,22,22,22,22,22,22,22,22,22,22,22,22,22,22,22,22,22,22,22,22,22,22,22,22,22,22,23,23,23,23,23,23,23,23,23,23,23,23,23,23,23,23,23,23,23,24,24,24,24,24,24,24,24,24,24,24,24,24,24,24,24,24,24,24,24,24,24,24,24,24,25,25,25,25,25,25,25,25,25,25,25,25,25,25,25,25,25,25,25,25,25,25,25,25,26,26,26,26,26,26,26,26,26,26,26,26,26,26,26,26,26,26,26,26,26,26,26,26,26,27,27,27,27,27,27,27,27,27,27,27,27,27,27,27,27,27,27,27,27,27,28,28,28,28,28,28,28,28,28,28,28,28,28,28,28,28,28,28,28,28,28,28,28,28,28,29,29,29,29,29,29,29,29,29,29,29,29,29,29,29,29,29,29,29,29,29,29,29,29,29,29,29,29,30,30,30,30,30,30,30,30,30,30,30,30,30,30,30,30,30,30,30,30,30,30,30,30,30,30,30,30,30,30,31,31,31,31,31,31,31,31,31,31,31,31,31,31,31,32,32,32,32,32,32,32,32,32,32,32,32,32,32,32,32,32,32,32,32,32,32,32,32,32,32,33,33,33,33,33,33,33,33,33,33,33,33,33,33,33,33,33,33,33,34,34,34,34,34,34,34,34,34,34,34,34,34,34,34,34,34,34,34,35,35,35,35,35,35,35,35,35,35,35,35,35,35,35,35,35,35,36,36,36,36,36,36,36,36,36,36,36,36,36,36,36,36,36,36,36,36,36,37,37,37,37,37,37,37,37,37,37,37,37,37,37,37,37,38,38,38,38,38,38,38,38,38,38,38,38,38,38,38,38,38,38,38,39,39,39,39,39,39,39,39,39,39,39,39,39,39,39,39,39,40,40,40,40,40,40,40,40,40,40,40,41,41,41,41,41,41,41,41,41,41,41,41,41,41,41,41,41,42,42,42,42,42,42,42,42,42,42,42,42,42,42,42,43,43,43,43,43,43,43,43,43,43,43,43,43,43,44,44,44,44,44,44,44,44,44,44,44,44,44,44,45,45,45,45,45,45,45,45,45,45,46,46,46,46,46,46,46,46,46,46,46,46,47,47,47,47,47,47,47,47,47,47,48,48,48,48,48,48,49,49,49,49,49,49,49,49,49,50,50,50,50,50,50,50,50,51,51,51,51,51,51,51,51,52,52,52,52,52,52,52,53,53,53,53,53,53,54,54,54,54,54,55,55,55,55,55,56,56,56,56,57,57,57,58,58,59,59,60];
unsucc = [3,4,5,6,7,8,9,10,11,12,13,14,15,16,17,19,20,21,22,23,24,25,26,27,28,29,31,32,33,34,35,36,37,38,40,41,42,44,45,46,47,48,49,50,51,52,55,57,4,6,8,9,11,12,13,16,17,18,22,28,32,34,40,5,7,10,14,15,19,21,23,27,31,33,35,38,6,8,9,10,11,12,13,16,17,18,19,22,23,28,31,32,34,39,40,43,45,53,7,8,9,10,11,13,14,15,16,17,18,19,20,21,23,24,25,26,27,28,29,30,31,33,34,35,36,37,38,39,42,48,8,9,10,11,12,13,16,17,18,19,22,23,24,26,28,29,30,31,32,34,39,40,41,43,45,53,10,11,12,14,15,17,19,21,22,23,27,28,31,32,33,34,35,38,40,44,45,48,10,11,12,14,15,16,17,19,21,22,23,27,28,31,32,33,34,35,38,40,44,45,48,11,12,13,14,15,16,17,18,20,21,22,24,25,26,27,28,32,34,35,36,37,38,40,41,42,45,47,50,12,13,14,15,16,19,20,21,22,23,24,25,26,27,29,31,32,33,35,36,37,38,40,41,42,44,45,46,47,50,13,14,15,16,17,18,19,20,21,23,24,25,26,27,28,29,30,31,33,34,35,36,37,38,39,42,46,48,57,14,15,16,17,18,19,20,21,22,23,25,27,28,31,32,33,34,35,36,37,38,39,40,43,44,45,46,47,48,54,16,17,18,19,20,22,23,24,25,26,28,29,30,31,32,34,36,39,40,41,43,45,46,53,57,16,17,18,19,20,21,22,23,24,25,26,28,29,30,31,32,34,36,37,38,39,40,41,42,43,44,45,46,47,50,53,57,17,18,19,20,21,22,23,24,25,26,27,28,29,30,31,32,33,34,35,36,37,38,39,40,42,43,44,45,46,47,48,49,50,51,52,53,54,56,57,58,61,19,20,21,22,23,24,25,26,27,28,29,31,32,33,35,36,37,38,40,41,42,44,45,46,47,48,49,50,51,52,57,19,20,21,22,23,24,25,26,27,28,29,31,32,33,34,35,36,37,38,40,41,42,44,45,46,47,48,49,50,51,52,55,57,60,20,21,22,24,25,26,27,28,32,34,35,36,37,38,40,41,42,45,47,50,21,22,23,24,26,27,28,29,30,31,32,33,34,35,38,39,40,41,43,44,45,48,49,53,54,56,61,22,23,24,25,26,27,28,29,30,31,32,33,34,35,36,37,39,40,41,42,43,45,46,48,49,53,54,57,23,24,25,26,27,28,29,30,31,33,34,35,36,37,38,39,42,43,45,46,48,53,54,56,57,61,24,25,26,27,28,29,30,32,34,35,36,37,38,40,41,42,45,47,50,25,27,28,31,32,33,34,35,36,37,38,39,40,43,44,45,46,47,48,49,52,53,54,56,58,26,27,28,29,30,31,32,33,34,35,38,39,40,41,43,44,45,47,48,49,53,54,56,61,27,28,31,32,33,34,35,36,37,38,39,40,42,43,44,45,46,47,48,49,52,53,54,56,58,28,29,30,31,32,34,36,37,38,39,40,41,42,43,44,45,46,47,50,53,57,29,30,31,32,33,34,35,36,37,38,39,40,41,42,43,44,45,46,47,50,53,54,56,57,61,31,32,33,34,35,36,37,38,39,40,41,42,43,44,45,46,47,48,49,50,51,52,53,54,55,56,58,59,31,32,33,34,35,36,37,38,39,40,41,42,43,44,45,46,47,48,49,50,51,52,53,54,55,56,57,58,59,60,32,34,35,36,37,38,40,41,42,44,45,46,47,50,57,33,34,35,36,37,38,39,40,41,42,43,44,45,46,47,48,49,50,52,53,54,56,57,58,59,61,34,35,36,37,38,39,40,41,42,43,44,45,46,47,50,53,54,56,57,35,36,37,38,40,41,42,44,45,46,47,48,49,50,51,52,57,58,59,36,37,38,39,40,41,42,43,44,45,46,47,50,53,54,56,57,61,37,38,39,40,41,42,43,44,45,47,48,49,50,51,52,53,54,55,56,58,61,38,39,40,41,43,44,45,46,47,48,49,53,54,56,57,61,39,40,41,42,43,45,46,47,48,49,50,51,53,54,55,56,57,60,61,40,41,42,44,45,46,47,48,49,50,51,52,55,57,58,59,60,42,43,45,46,48,49,53,54,56,57,61,42,43,44,45,46,47,48,49,50,51,52,53,54,56,57,58,61,43,44,45,46,47,48,49,52,53,54,56,57,58,59,61,44,45,46,47,48,49,50,51,52,55,57,58,59,60,45,46,47,48,49,50,51,53,54,55,56,57,60,61,46,47,48,49,50,51,52,55,57,60,47,48,49,50,51,52,53,54,55,56,58,61,48,49,52,53,54,56,57,58,59,61,50,53,54,56,57,61,50,51,53,54,55,56,57,60,61,52,53,54,56,57,58,59,61,52,53,54,56,57,58,59,61,53,54,55,56,57,60,61,54,55,57,58,59,60,55,57,58,59,60,56,57,58,59,61,57,58,59,60,58,59,61,60,61,60,61,61];

USEFUL_RES = [{},
	{2,3,4,5,6,7,8,10,11,12,13},
	{2,4,7,8,9,11,12},
	{1,2,3,5,6,7,8,9,10,13},
	{1,2,3,4,6,7,8,9,10,11,12},
	{1,2,3,4,6,7,8,9,10,11,12},
	{2,3,5,6,7,8,9,10,13},
	{1,2,3,4,5,6,7,8,9,10,11,12,13},
	{1,2,3,4,5,6,7,8,9,10,11,12,13},
	{2,7,8,9},
	{3,5,6,10,13},
	{1,2,3,7,8,9},
	{2,4,7,8,9,11,12},
	{1,2,3,5,6,7,8,9,10,13},
	{2,3,4,5,6,7,8,10,11,12,13},
	{2,4,11,12},
	{1,2,3,7,8,9},
	{1,2,3,5,6,7,8,9,10,13},
	{2,7,8,9},
	{2,3,5,6,7,8,9,10,13},
	{1,2,3,6,7,8,9,10},
	{1,2,3,4,5,6,7,8,9,10,11,12,13},
	{1,2,3,4,6,7,8,9,10,11,12},
	{1,2,3,4,6,7,8,9,10,11,12},
	{1,2,3,4,7,8,9,11,12},
	{1,2,3,6,7,8,9,10},
	{1,2,3,4,7,8,9,11,12},
	{2,4,7,8,9,11,12},
	{2,7,8},
	{1,2,3,4,5,6,7,8,9,10,11,12,13},
	{3,6,10},
	{1,2,3,4,7,8,9,11,12},
	{1,2,3,5,6,7,8,9,10,13},
	{2,4,11,12},
	{2,7,8,9},
	{2,3,5,6,7,8,9,10,13},
	{2,4,11,12},
	{2,3,4,5,6,7,8,9,10,11,12,13},
	{2,3,5,6,7,8,9,10,13},
	{2,3,4,5,6,10,11,12,13},
	{2,3,4,5,6,7,8,9,10,11,12,13},
	{1,2,3,7,8,9},
	{1,2,3,7,8,9},
	{2,7,8,9},
	{1,2,3,4,7,8,9,11,12},
	{1,2,3,6,7,8,9,10},
	{2,3,5,6,7,8,9,10,13},
	{1,2,3,7,8,9},
	{2,4,11,12},
	{1,2,3,5,6,7,8,9,10,13},
	{1,2,3,5,6,7,8,9,10,13},
	{1,2,3,4,7,8,9,11,12},
	{2,3,4,6,10,11,12},
	{2,4,11,12},
	{1,2,3,5,6,7,8,9,10,13},
	{2,3,4,5,6,7,8,10,11,12,13},
	{2,7,8,9},
	{2,3,4,5,6,7,8,9,10,11,12,13},
	{1,2,3,7,8,9},
	{1,2,3,4,7,8,9,11,12},
	{2,3,5,6,7,8,10,13},
	{}];

POTENTIAL_ACT = [{4,5,6,8,9,12,14,17,18,21,22,23,24,25,26,27,30,32,33,42,43,45,46,48,50,51,52,55,59,60},
	{2,3,4,5,6,7,8,9,10,12,13,14,15,16,17,18,19,20,21,22,23,24,25,26,27,28,29,30,32,33,34,35,36,37,38,39,40,41,42,43,44,45,46,47,48,49,50,51,52,53,54,55,56,57,58,59,60,61},
	{2,4,5,6,7,8,9,11,12,14,15,17,18,20,21,22,23,24,25,26,27,30,31,32,33,36,38,39,40,41,42,43,45,46,47,48,50,51,52,53,55,56,58,59,60,61},
	{2,3,5,6,8,9,13,15,16,22,23,24,25,27,28,30,32,34,37,38,40,41,45,49,52,53,54,56,58,60},
	{2,4,7,8,9,11,14,15,18,20,22,30,33,36,38,39,40,41,47,50,51,55,56,58,61},
	{2,4,5,6,7,8,9,11,14,15,18,20,21,22,23,24,26,30,31,33,36,38,39,40,41,46,47,50,51,53,55,56,58,61},
	{2,3,4,5,6,7,8,9,10,12,13,14,15,17,18,19,20,21,22,23,24,25,26,27,28,29,30,32,33,35,36,38,39,41,42,43,44,45,46,47,48,50,51,52,55,56,57,58,59,60,61},
	{2,3,4,5,6,7,8,9,10,12,13,14,15,17,18,19,20,21,22,23,24,25,26,27,28,29,30,32,33,35,36,38,39,41,42,43,44,45,46,47,48,50,51,52,55,56,57,58,59,60,61},
	{3,4,5,6,7,8,9,10,12,13,14,17,18,19,20,21,22,23,24,25,26,27,28,30,32,33,35,36,38,39,41,42,43,44,45,46,47,48,50,51,52,55,57,58,59,60},
	{2,4,5,6,7,8,9,11,14,15,18,20,21,22,23,24,26,30,31,33,36,38,39,40,41,46,47,50,51,53,55,56,58,61},
	{2,3,5,6,8,9,13,15,16,22,23,24,25,27,28,30,32,34,37,38,40,41,45,49,52,53,54,56,58,60},
	{2,3,5,6,8,9,13,15,16,22,23,24,25,27,28,30,32,34,37,38,40,41,45,49,52,53,54,56,58,60},
	{2,4,7,8,9,11,14,15,18,20,22,30,33,36,38,39,40,41,47,50,51,55,56,58,61}];
